NAME: random-26-29863
TYPE: TSP
COMMENT: size=26 seed=29863
DIMENSION: 54
EDGE_WEIGHT_TYPE: EUC_2D
NODE_COORD_SECTION
+0 441 471
-0 441 471
+1 820 650
-1 84 730
+2 154 803
-2 276 778
+3 291 542
-3 169 843
+4 27 964
-4 417 744
+5 340 524
-5 431 596
+6 237 634
-6 775 945
+7 174 572
-7 663 471
+8 317 622
-8 323 385
+9 753 151
-9 712 753
+10 602 309
-10 899 409
+11 523 945
-11 50 793
+12 901 387
-12 680 937
+13 304 449
-13 468 986
+14 396 666
-14 693 513
+15 381 56
-15 341 743
+16 55 242
-16 442 381
+17 723 485
-17 230 866
+18 727 236
-18 602 239
+19 669 303
-19 348 347
+20 758 401
-20 796 690
+21 755 685
-21 320 338
+22 851 29
-22 183 40
+23 961 597
-23 132 297
+24 573 721
-24 820 884
+25 248 580
-25 354 289
+26 501 17
-26 337 22
PRECEDENCE_SECTION
+0 -0
+1 -1
+2 -2
+3 -3
+4 -4
+5 -5
+6 -6
+7 -7
+8 -8
+9 -9
+10 -10
+11 -11
+12 -12
+13 -13
+14 -14
+15 -15
+16 -16
+17 -17
+18 -18
+19 -19
+20 -20
+21 -21
+22 -22
+23 -23
+24 -24
+25 -25
+26 -26
EOF
